100
128
23
6
33
54
2
34
13
52
39
33
4
25
27
46
52
19
63
43
30
61
62
7
9
44
28
23
22
3
22
11
48
24
29
36
38
16
19
35
1
47
42
62
15
11
1
28
20
12
11
63
20
18
14
60
28
35
17
44
46
15
16
55
43
37
12
48
64
27
63
14
26
48
22
28
16
27
26
39
24
19
36
60
19
32
20
19
27
62
55
53
50
45
20
33
37
61
54
48
26
30